Linux optc-04-08 4.15.0-88-generic #88-Ubuntu SMP Tue Feb 11 20:11:34 UTC 2020 x86_64 x86_64 x86_64 GNU/Linux

top - 09:42:14 up 2 days, 20:17,  0 users,  load average: 0,57, 0,80, 0,92
Tasks: 468 gesamt,   1 laufend, 236 schlafend,   0 gestoppt,   0 Zombie
%CPU(s): 17,4 be,  4,3 sy,  0,0 ni, 78,3 un,  0,0 wa,  0,0 hi,  0,0 si,  0,0 st
KiB Spch : 65916192 gesamt, 63219044 frei,   618552 belegt,  2078596 Puff/Cache
KiB Swap:  8388604 gesamt,  8252944 frei,   135660 belegt. 64725708 verfü Spch 

  PID USER      PR  NI    VIRT    RES    SHR S  %CPU %MEM     ZEIT+ BEFEHL
41250 bzfhende  20   0   52808   4256   3312 R  11,8  0,0   0:00.03 top
    1 root      20   0  233656   6180   4336 S   0,0  0,0   0:17.41 systemd
    2 root      20   0       0      0      0 S   0,0  0,0   0:00.29 kthreadd
    4 root       0 -20       0      0      0 I   0,0  0,0   0:00.00 kworker/0:+
    5 root      20   0       0      0      0 I   0,0  0,0   0:44.94 kworker/u9+
    7 root       0 -20       0      0      0 I   0,0  0,0   0:00.00 mm_percpu_+
    8 root      20   0       0      0      0 S   0,0  0,0   0:00.13 ksoftirqd/0
    9 root      20   0       0      0      0 I   0,0  0,0   0:38.44 rcu_sched

hard time limit: 00-04:10:00
hard mem limit: 38600

SLURM jobID: 6405169

@01 /nfs/OPTI/bzfhende/instances//./miplib2010_opm2-z12-s7/instances/opm2-z12-s7.mps.gz ===========
-----------------------------
So 8. Mär 09:42:14 CET 2020
-----------------------------
@03 1583656934
@05 7200
SCIP version 7.0.0 [precision: 8 byte] [memory: block] [mode: optimized] [LP solver: CPLEX 12.10.0.0] [GitHash: 297532de76]
Copyright (C) 2002-2020 Konrad-Zuse-Zentrum fuer Informationstechnik Berlin (ZIB)

External codes: 
  Readline 7.0         GNU library for command line editing (gnu.org/s/readline)
  CPLEX 12.10.0.0      Linear Programming Solver developed by IBM (www.cplex.com)
  CppAD 20180000.0     Algorithmic Differentiation of C++ algorithms developed by B. Bell (www.coin-or.org/CppAD)
  ZLIB 1.2.11          General purpose compression library by J. Gailly and M. Adler (zlib.net)
  GMP 6.1.2            GNU Multiple Precision Arithmetic Library developed by T. Granlund (gmplib.org)
  bliss 0.73p          Computing Graph Automorphism Groups by T. Junttila and P. Kaski (http://www.tcs.hut.fi/Software/bliss/)

user parameter file <scip.set> not found - using default parameters

SCIP> 
SCIP> set load /nfs/OPTI/bzfhende/scip-opti/check/../settings/periodic_report.sett
loaded parameter file </nfs/OPTI/bzfhende/scip-opti/check/../settings/periodic_report.set>
SCIP> set misc referencevalue -65514.0
misc/referencevalue = -65514
SCIP> set limits time 7200
limits/time = 7200
SCIP> set limits nodes 2100000000
limits/nodes = 2100000000
SCIP> set limits memory 35000
limits/memory = 35000
SCIP> set lp advanced threads 1
lp/threads = 1
SCIP> set timing clocktype 1
timing/clocktype = 1
SCIP> set display freq 10000
display/freq = 10000
SCIP> set memory savefac 1.0
memory/savefac = 1
SCIP> set save /nfs/OPTI/bzfhende/scip-opti/check/treesize.prediction.opm2/bzfhennde.instancegroups_opm2.150_opm2-z12-s7.scip.M620v2.periodic_report.set
saved parameter file </nfs/OPTI/bzfhende/scip-opti/check/treesize.prediction.opm2/bzfhende.instancegroups_opm2.150_opm2-z12-s7.scip.M620v2.periodic_report.set>
SCIP> read /nfs/OPTI/bzfhende/instances//./miplib2010_opm2-z12-s7/instances/opm2--z12-s7.mps.gz

read problem </nfs/OPTI/bzfhende/instances//./miplib2010_opm2-z12-s7/instances/opm2-z12-s7.mps.gz>
============

original problem has 10800 variables (10800 bin, 0 int, 0 impl, 0 cont) and 319508 constraints
SCIP> display parameters

number of parameters = 2603
non-default parameter settings:
display/freq = 10000
limits/time = 7200
limits/nodes = 2100000000
limits/memory = 35000
lp/threads = 1
memory/savefac = 1
misc/referencevalue = -65514
timing/clocktype = 1
estimation/restarts/restartpolicy = n
estimation/restarts/restartlimit = 0
estimation/reportfreq = 100
estimation/treeprofile/enabled = TRUE

SCIP> optimize

feasible solution found by trivial heuristic after 0.4 seconds, objective value 0.000000e+00
presolving:
(round 1, fast)       408 del vars, 19416 del conss, 0 add conss, 0 chg bounds, 0 chg sides, 0 chg coeffs, 0 upgd conss, 0 impls, 300036 clqs
(round 2, fast)       422 del vars, 20342 del conss, 0 add conss, 0 chg bounds, 0 chg sides, 0 chg coeffs, 0 upgd conss, 0 impls, 299130 clqs
(round 3, exhaustive) 422 del vars, 20370 del conss, 0 add conss, 0 chg bounds, 0 chg sides, 0 chg coeffs, 299138 upgd conss, 0 impls, 299130 clqs
(round 4, fast)       444 del vars, 20894 del conss, 0 add conss, 0 chg bounds, 0 chg sides, 0 chg coeffs, 299138 upgd conss, 0 impls, 298008 clqs
(round 5, fast)       444 del vars, 21492 del conss, 0 add conss, 0 chg bounds, 0 chg sides, 0 chg coeffs, 299138 upgd conss, 0 impls, 298008 clqs
   (54.7s) probing: 1000/10356 (9.7%) - 0 fixings, 0 aggregations, 344478 implications, 0 bound changes
   (54.7s) probing: 1001/10356 (9.7%) - 0 fixings, 0 aggregations, 344840 implications, 0 bound changes
   (54.7s) probing aborted: 1000/1000 successive useless probings
   (60.2s) symmetry computation started: requiring (bin +, int +, cont +), (fixed: bin -, int -, cont -)
   (60.6s) no symmetry present
presolving (6 rounds: 6 fast, 2 medium, 2 exhaustive):
 444 deleted vars, 21492 deleted constraints, 0 added constraints, 0 tightened bounds, 0 added holes, 0 changed sides, 0 changed coefficients
 0 implications, 642848 cliques
presolved problem has 10356 variables (10356 bin, 0 int, 0 impl, 0 cont) and 298016 constraints
      8 constraints of type <knapsack>
 298008 constraints of type <setppc>
transformed objective value is always integral (scale: 1)
Presolving Time: 60.39
transformed 1/1 original solutions to the transformed problem space

 time | node  | left  |LP iter|LP it/n|mem/heur|mdpt |vars |cons |rows |cuts |sepa|confs|strbr|  dualbound   | primalbound  |  gap   | compl. 
p61.9s|     1 |     0 |     0 |     - |   locks|   0 |  10k| 298k| 298k|   0 |  0 |   3 |   0 |-9.598520e+05 |-2.537100e+04 |3683.26%| unknown
p63.2s|     1 |     0 |     0 |     - | vbounds|   0 |  10k| 298k| 298k|   0 |  0 |   6 |   0 |-9.598520e+05 |-3.761100e+04 |2452.05%| unknown
  156s|     1 |     0 | 61162 |     - |  2437M |   0 |  10k| 298k| 298k|   0 |  0 |  34 |   0 |-9.051429e+04 |-3.761100e+04 | 140.66%| unknown
r 159s|     1 |     0 | 61162 |     - |shifting|   0 |  10k| 298k| 298k|   0 |  0 |  35 |   0 |-9.051429e+04 |-3.858500e+04 | 134.58%| unknown
d2341s|     1 |     0 |166714 |     - |farkasdi|   0 |  10k| 298k| 298k|   0 |  2 |  35 |   0 |-9.051429e+04 |-5.563600e+04 |  62.69%| unknown
 3528s|     1 |     0 |211152 |     - |  2557M |   0 |  10k| 298k| 298k|   0 |  2 |  49 |   0 |-9.051429e+04 |-5.563600e+04 |  62.69%| unknown
 4143s|     1 |     2 |211152 |     - |  2560M |   0 |  10k| 298k| 298k|   0 |  4 |  59 |  41 |-8.971555e+04 |-5.563600e+04 |  61.25%| unknown
Report 1
Time Elapsed: 5695.04
Estim. Tree Size   :          7
Estimation Tree    : 9 nodes (5 visited, 4 inner, 1 leaves, 4 open), weight: 0.2500 completed 0.1852
Estimations        :      estim      value      trend resolution     smooth
  wbe              :          7          -          -          -          -
  tree-profile     :         -1          -          -          -          -
  gap              :          2    0.62928    0.62928          1          2
  tree-weight      :          7    0.25000    0.25000          1          7
  leaf-frequency   :          2    0.10000    0.60000          1          2
  ssg              :         13    0.85237   -0.14763          1         13
  open-nodes       :         10    4.00000    4.00000          1         10
End of Report 1

d6386s|     6 |     5 |258564 |39480.4 |pscostdi|   2 |  10k| 298k| 298k|   0 |  1 | 124 | 179 |-8.841176e+04 |-5.884000e+04 |  50.26%|  18.52%
Report 2
Time Elapsed: 6455.67
Estim. Tree Size   :          7
Estimation Tree    : 11 nodes (7 visited, 5 inner, 2 leaves, 4 open), weight: 0.5000 completed 0.2768
Estimations        :      estim      value      trend resolution     smooth
  wbe              :          7          -          -          -          -
  tree-profile     :         -1          -          -          -          -
  gap              :          4    0.66552    0.53815          1          4
  tree-weight      :          7    0.50000    0.23688          1          7
  leaf-frequency   :          4    0.21429    0.52881          1          4
  ssg              :         12    0.85237   -0.18549          1         12
  open-nodes       :         14    4.00000    3.40000          1         13
End of Report 2


SCIP Status        : solving was interrupted [time limit reached]
Solving Time (sec) : 7200.09
Solving Nodes      : 9
Primal Bound       : -5.88400000000000e+04 (6 solutions)
Dual Bound         : -8.84117566758065e+04
Gap                : 50.26 %

SCIP> display statistics

SCIP Status        : solving was interrupted [time limit reached]
Total Time         :    7200.81
  solving          :    7200.09
  presolving       :      60.39 (included in solving)
  reading          :       0.72
  copying          :       0.00 (0 times copied the problem)
Original Problem   :
  Problem name     : opm2-z12-s7
  Variables        : 10800 (10800 binary, 0 integer, 0 implicit integer, 0 continuous)
  Constraints      : 319508 initial, 319508 maximal
  Objective        : minimize, 10742 non-zeros (abs.min = 1, abs.max = 574)
Presolved Problem  :
  Problem name     : t_opm2-z12-s7
  Variables        : 10356 (10356 binary, 0 integer, 0 implicit integer, 0 continuous)
  Constraints      : 298016 initial, 298106 maximal
  Objective        : minimize, 10298 non-zeros (abs.min = 1, abs.max = 574)
  Nonzeros         : 678849 constraint, 1285696 clique table
Presolvers         :   ExecTime  SetupTime  Calls  FixedVars   AggrVars   ChgTypes  ChgBounds   AddHoles    DelCons    AddCons   ChgSides   ChgCoefs
  boundshift       :       0.00       0.00      0          0          0          0          0          0          0          0          0          0
  convertinttobin  :       0.00       0.00      0          0          0          0          0          0          0          0          0          0
  domcol           :       0.16       0.00      1          0          0          0          0          0          0          0          0          0
  dualagg          :       0.00       0.00      0          0          0          0          0          0          0          0          0          0
  dualcomp         :       0.00       0.00      0          0          0          0          0          0          0          0          0          0
  dualinfer        :       0.00       0.00      0          0          0          0          0          0          0          0          0          0
  dualsparsify     :       5.50       0.00      1          0          0          0          0          0          0          0          0          0
  gateextraction   :       0.00       0.00      0          0          0          0          0          0          0          0          0          0
  implics          :       0.00       0.00      2          0          0          0          0          0          0          0          0          0
  inttobinary      :       0.00       0.00      0          0          0          0          0          0          0          0          0          0
  qpkktref         :       0.00       0.00      0          0          0          0          0          0          0          0          0          0
  redvub           :       0.00       0.00      0          0          0          0          0          0          0          0          0          0
  sparsify         :       0.22       0.00      1          0          0          0          0          0          0          0          0          0
  stuffing         :       0.00       0.00      0          0          0          0          0          0          0          0          0          0
  trivial          :       0.00       0.00      6          0          0          0          0          0          0          0          0          0
  tworowbnd        :       0.19       0.00      1          0          0          0          0          0          0          0          0          0
  dualfix          :       0.00       0.00      6        410          0          0          0          0          0          0          0          0
  genvbounds       :       0.00       0.01      0          0          0          0          0          0          0          0          0          0
  probing          :      48.25       0.00      1          0          0          0          0          0          0          0          0          0
  pseudoobj        :       0.00       0.00      3          0          0          0          0          0          0          0          0          0
  symmetry         :       0.40       0.00      1          0          0          0          0          0          0          0          0          0
  vbounds          :       0.04       0.00      1          0          0          0          0          0          0          0          0          0
  knapsack         :       1.88       0.00      5          0          0          0          0          0          0          0          0          0
  setppc           :       0.92       0.01      5         22          0          0          0          0       1122          0          0          0
  linear           :       2.52       0.07      4          0         12          0          0          0      20370          0          0          0
  logicor          :       0.00       0.00      0          0          0          0          0          0          0          0          0          0
  benders          :       0.00       0.00      0          0          0          0          0          0          0          0          0          0
  components       :       0.09       0.00      1          0          0          0          0          0          0          0          0          0
  root node        :          -          -      -          0          -          -          0          -          -          -          -          -
Constraints        :     Number  MaxNumber  #Separate #Propagate    #EnfoLP    #EnfoRelax  #EnfoPS    #Check   #ResProp    Cutoffs    DomReds       Cuts    Applied      Conss   Children
  benderslp        :          0          0          0          0         13          0          0         13          0          0          0          0          0          0          0
  integral         :          0          0          0          0         13          0          0         13          0          0        680          0          0         61         14
  knapsack         :          8          8          2      31419          0          0          0          8          5         24          0          0          0          0          0
  setppc           :     298008     298008          2      31389          0          0          0          6      53496          5       2732          0          0          0          0
  linear           :          0+        16          0       3667          0          0          0          0          0          0          0          0          0          0          0
  logicor          :          0+        74          2        432          0          0          0          0          7          0          0          0          0          0          0
  benders          :          0          0          0          0          0          0          0          8          0          0          0          0          0          0          0
  countsols        :          0          0          0          0          0          0          0          8          0          0          0          0          0          0          0
  components       :          0          0          0          0          0          0          0          0          0          0          0          0          0          0          0
Constraint Timings :  TotalTime  SetupTime   Separate  Propagate     EnfoLP     EnfoPS     EnfoRelax   Check    ResProp    SB-Prop
  benderslp        :       0.00       0.00       0.00       0.00       0.00       0.00       0.00       0.00       0.00       0.00
  integral         :    2538.77       0.00       0.00       0.00    2538.77       0.00       0.00       0.00       0.00       0.00
  knapsack         :      17.90       0.00      15.15       2.57       0.00       0.00       0.00       0.01       0.00       0.17
  setppc           :      14.95       0.01       0.16      12.40       0.00       0.00       0.00       0.07       0.07       2.24
  linear           :       0.08       0.07       0.00       0.00       0.00       0.00       0.00       0.00       0.00       0.01
  logicor          :       0.00       0.00       0.00       0.00       0.00       0.00       0.00       0.00       0.00       0.00
  benders          :       0.00       0.00       0.00       0.00       0.00       0.00       0.00       0.00       0.00       0.00
  countsols        :       0.00       0.00       0.00       0.00       0.00       0.00       0.00       0.00       0.00       0.00
  components       :       0.00       0.00       0.00       0.00       0.00       0.00       0.00       0.00       0.00       0.00
Propagators        : #Propagate   #ResProp    Cutoffs    DomReds
  dualfix          :          3          0          0          0
  genvbounds       :          0          0          0          0
  nlobbt           :          0          0          0          0
  obbt             :          0          0          0          0
  probing          :          0          0          0          0
  pseudoobj        :         82          0          0          0
  redcost          :         16          0          0          0
  rootredcost      :          2          0          0          0
  symmetry         :          0          0          0          0
  vbounds          :      23537          0          0          0
Propagator Timings :  TotalTime  SetupTime   Presolve  Propagate    ResProp    SB-Prop
  dualfix          :       0.01       0.00       0.00       0.01       0.00       0.00
  genvbounds       :       0.05       0.01       0.00       0.03       0.00       0.01
  nlobbt           :       0.00       0.00       0.00       0.00       0.00       0.00
  obbt             :       0.00       0.00       0.00       0.00       0.00       0.00
  probing          :      48.25       0.00      48.25       0.00       0.00       0.00
  pseudoobj        :       0.22       0.00       0.00       0.22       0.00       0.00
  redcost          :       0.03       0.00       0.00       0.03       0.00       0.00
  rootredcost      :       0.02       0.00       0.00       0.01       0.00       0.01
  symmetry         :       0.42       0.00       0.40       0.02       0.00       0.00
  vbounds          :       0.07       0.00       0.04       0.02       0.00       0.01
Conflict Analysis  :       Time      Calls    Success    DomReds  Conflicts   Literals    Reconvs ReconvLits   Dualrays   Nonzeros   LP Iters   (pool size: [10000,10000])
  propagation      :       0.35         27         27          -       2420     1329.9          0        0.0          -          -          -
  infeasible LP    :       0.00          0          0          -          0        0.0          0        0.0          0        0.0          0
  bound exceed. LP :       7.28         17         16          -         97      343.2          0        0.0         16      932.1        320
  strong branching :       0.00          0          0          -          0        0.0          0        0.0          -          -          0
  pseudo solution  :       0.00          0          0          -          0        0.0          0        0.0          -          -          -
  applied globally :       0.01          -          -          0        108      538.6          -          -         16          -          -
  applied locally  :          -          -          -          0          0        0.0          -          -          0          -          -
Separators         :   ExecTime  SetupTime      Calls    Cutoffs    DomReds       Cuts    Applied      Conss
  cut pool         :       0.00                     0          -          -          0          -          -    (maximal pool size: 0)
  aggregation      :      32.48       0.00          2          0          0          0          0          0
  cgmip            :       0.00       0.00          0          0          0          0          0          0
  clique           :      12.27       0.00          2          0          0          0          0          0
  closecuts        :       0.00       0.00          0          0          0          0          0          0
  cmir             :       0.00       0.00          0          0          0          0          0          0
  convexproj       :       0.00       0.00          0          0          0          0          0          0
  disjunctive      :       0.00       0.00          0          0          0          0          0          0
  eccuts           :       0.00       0.00          0          0          0          0          0          0
  flowcover        :       0.00       0.00          0          0          0          0          0          0
  gauge            :       0.00       0.00          0          0          0          0          0          0
  gomory           :      81.35       0.00          2          0          0          0          0          0
  impliedbounds    :       0.04       0.00          2          0          0          0          0          0
  intobj           :       0.00       0.00          0          0          0          0          0          0
  mcf              :       0.18       0.00          1          0          0          0          0          0
  oddcycle         :       0.00       0.00          0          0          0          0          0          0
  rapidlearning    :       0.01       0.00          0          0          0          0          0          0
  strongcg         :      81.07       0.00          2          0          0          0          0          0
  zerohalf         :      52.07       0.00          2          0          0          0          0          0
Pricers            :   ExecTime  SetupTime      Calls       Vars
  problem variables:       0.00          -          0          0
Branching Rules    :   ExecTime  SetupTime   BranchLP  BranchExt   BranchPS    Cutoffs    DomReds       Cuts      Conss   Children
  allfullstrong    :       0.00       0.00          0          0          0          0          0          0          0          0
  cloud            :       0.00       0.00          0          0          0          0          0          0          0          0
  distribution     :       0.00       0.00          0          0          0          0          0          0          0          0
  fullstrong       :       0.00       0.00          0          0          0          0          0          0          0          0
  inference        :       0.00       0.00          0          0          0          0          0          0          0          0
  leastinf         :       0.00       0.00          0          0          0          0          0          0          0          0
  lookahead        :       0.00       0.00          0          0          0          0          0          0          0          0
  mostinf          :       0.00       0.00          0          0          0          0          0          0          0          0
  multaggr         :       0.00       0.00          0          0          0          0          0          0          0          0
  nodereopt        :       0.00       0.00          0          0          0          0          0          0          0          0
  pscost           :       0.00       0.00          0          0          0          0          0          0          0          0
  random           :       0.00       0.00          0          0          0          0          0          0          0          0
  relpscost        :    2538.77       0.00         13          0          0          0        680          0         64         14
  vanillafullstrong:       0.00       0.00          0          0          0          0          0          0          0          0
Primal Heuristics  :   ExecTime  SetupTime      Calls      Found       Best
  LP solutions     :       0.00          -          -          0          0
  relax solutions  :       0.00          -          -          0          0
  pseudo solutions :       0.00          -          -          0          0
  strong branching :       0.00          -          -          0          0
  actconsdiving    :       0.00       0.00          0          0          0
  adaptivediving   :       0.00       0.00          0          0          0
  alns             :       0.00       0.00          1          0          0
  bound            :       0.00       0.00          0          0          0
  clique           :       0.41       0.00          1          0          0
  coefdiving       :       0.00       0.00          0          0          0
  completesol      :       0.00       0.00          0          0          0
  conflictdiving   :     145.80       0.00          1          0          0
  crossover        :       0.00       0.00          0          0          0
  dins             :       0.00       0.00          0          0          0
  distributiondivin:       0.00       0.00          0          0          0
  dualval          :       0.00       0.00          0          0          0
  farkasdiving     :    2041.50       0.00          1          1          1
  feaspump         :    1041.68       0.00          1          0          0
  fixandinfer      :       0.00       0.00          0          0          0
  fracdiving       :       0.00       0.00          0          0          0
  gins             :       0.00       0.00          0          0          0
  guideddiving     :       0.00       0.00          0          0          0
  indicator        :       0.00       0.00          0          0          0
  intdiving        :       0.00       0.00          0          0          0
  intshifting      :       0.00       0.00          0          0          0
  linesearchdiving :       0.00       0.00          0          0          0
  localbranching   :       0.00       0.00          0          0          0
  locks            :       0.63       0.00          1          1          1
  lpface           :       0.00       0.00          0          0          0
  mpec             :       0.00       0.00          0          0          0
  multistart       :       0.00       0.00          0          0          0
  mutation         :       0.00       0.00          0          0          0
  nlpdiving        :       0.00       0.00          0          0          0
  objpscostdiving  :       0.00       0.00          0          0          0
  octane           :       0.00       0.00          0          0          0
  ofins            :       0.00       0.00          0          0          0
  oneopt           :       0.11       0.00          4          0          0
  padm             :       0.00       0.00          0          0          0
  proximity        :       0.00       0.00          0          0          0
  pscostdiving     :     465.09       0.00          1          1          1
  randrounding     :       0.23       0.00          2          0          0
  rens             :       0.00       0.00          0          0          0
  reoptsols        :       0.00       0.00          0          0          0
  repair           :       0.00       0.00          0          0          0
  rins             :       0.00       0.00          0          0          0
  rootsoldiving    :       0.00       0.00          0          0          0
  rounding         :      13.64       0.00         14          0          0
  shiftandpropagate:       0.00       0.00          0          0          0
  shifting         :       2.63       0.00          2          1          1
  simplerounding   :       0.01       0.00         14          0          0
  subnlp           :       0.00       0.00          0          0          0
  trivial          :       0.04       0.00          2          1          1
  trivialnegation  :       0.00       0.00          0          0          0
  trustregion      :       0.00       0.00          0          0          0
  trysol           :       0.00       0.00          0          0          0
  twoopt           :       0.00       0.00          0          0          0
  undercover       :       0.00       0.00          0          0          0
  vbounds          :       3.13       0.00          1          1          1
  veclendiving     :       0.00       0.00          0          0          0
  zeroobj          :       0.00       0.00          0          0          0
  zirounding       :       0.29       0.00          6          0          0
  other solutions  :          -          -          -          0          -
Diving (single)    :      Calls      Nodes   LP Iters Backtracks  Conflicts   MinDepth   MaxDepth   AvgDepth  RoundSols  NLeafSols  MinSolDpt  MaxSolDpt  AvgSolDpt
  actconsdiving    :          0          -          -          -          -          -          -          -          -          -          -          -          -
  coefdiving       :          0          -          -          -          -          -          -          -          -          -          -          -          -
  conflictdiving   :          1         60       5762          1         47         60         60       60.0          0          -          -          -          -
  distributiondivin:          0          -          -          -          -          -          -          -          -          -          -          -          -
  farkasdiving     :          1        705     105552          0          0        706        706      706.0          0          1        706        706      706.0
  fracdiving       :          0          -          -          -          -          -          -          -          -          -          -          -          -
  guideddiving     :          0          -          -          -          -          -          -          -          -          -          -          -          -
  linesearchdiving :          0          -          -          -          -          -          -          -          -          -          -          -          -
  pscostdiving     :          1        597      31114          0          0        600        600      600.0          0          1        600        600      600.0
  veclendiving     :          0          -          -          -          -          -          -          -          -          -          -          -          -
Diving (adaptive)  :      Calls      Nodes   LP Iters Backtracks  Conflicts   MinDepth   MaxDepth   AvgDepth  RoundSols  NLeafSols  MinSolDpt  MaxSolDpt  AvgSolDpt
  actconsdiving    :          0          -          -          -          -          -          -          -          -          -          -          -          -
  coefdiving       :          0          -          -          -          -          -          -          -          -          -          -          -          -
  conflictdiving   :          0          -          -          -          -          -          -          -          -          -          -          -          -
  distributiondivin:          0          -          -          -          -          -          -          -          -          -          -          -          -
  farkasdiving     :          0          -          -          -          -          -          -          -          -          -          -          -          -
  fracdiving       :          0          -          -          -          -          -          -          -          -          -          -          -          -
  guideddiving     :          0          -          -          -          -          -          -          -          -          -          -          -          -
  linesearchdiving :          0          -          -          -          -          -          -          -          -          -          -          -          -
  pscostdiving     :          0          -          -          -          -          -          -          -          -          -          -          -          -
  veclendiving     :          0          -          -          -          -          -          -          -          -          -          -          -          -
Neighborhoods      :      Calls  SetupTime  SolveTime SolveNodes       Sols       Best       Exp3  EpsGreedy        UCB TgtFixRate  Opt  Inf Node Stal  Sol  Usr Othr Actv
  rens             :          1       0.00       0.00          0          0          0    0.00000   -1.00000    1.00000      0.900    0    0    0    0    0    0    1    1
  rins             :          0       0.00       0.00          0          0          0    0.00000   -1.00000    1.00000      0.900    0    0    0    0    0    0    0    1
  mutation         :          0       0.00       0.00          0          0          0    0.00000   -1.00000    1.00000      0.900    0    0    0    0    0    0    0    1
  localbranching   :          0       0.00       0.00          0          0          0    0.00000   -1.00000    1.00000      0.900    0    0    0    0    0    0    0    1
  crossover        :          0       0.00       0.00          0          0          0    0.00000   -1.00000    1.00000      0.900    0    0    0    0    0    0    0    1
  proximity        :          0       0.00       0.00          0          0          0    0.00000   -1.00000    1.00000      0.900    0    0    0    0    0    0    0    1
  zeroobjective    :          0       0.00       0.00          0          0          0    0.00000   -1.00000    1.00000      0.900    0    0    0    0    0    0    0    1
  dins             :          0       0.00       0.00          0          0          0    0.00000   -1.00000    1.00000      0.900    0    0    0    0    0    0    0    1
  trustregion      :          0       0.00       0.00          0          0          0    0.00000   -1.00000    1.00000      0.900    0    0    0    0    0    0    0    0
LP                 :       Time      Calls Iterations  Iter/call   Iter/sec  Time-0-It Calls-0-It    ItLimit
  primal LP        :       0.00          0          0       0.00          -       0.00          0
  dual LP          :     609.66         16      83212    5547.47     136.49       0.02          1
  lex dual LP      :       0.00          0          0       0.00          -
  barrier LP       :       0.00          0          0       0.00          -       0.00          0
  resolve instable :       0.00          0          0       0.00          -
  diving/probing LP:    3679.22        919     181104     197.07      49.22
  strong branching :    2523.38        228     180014     789.54      71.34          -          -        298
    (at root node) :          -         41      37641     918.07          -
  conflict analysis:       6.85         32        320      10.00      46.72
B&B Tree           :
  number of runs   :          1
  nodes            :          9 (7 internal, 2 leaves)
  feasible leaves  :          0
  infeas. leaves   :          0
  objective leaves :          2
  nodes (total)    :          9 (7 internal, 2 leaves)
  nodes left       :          6
  max depth        :          4
  max depth (total):          4
  backtracks       :          3 (33.3%)
  early backtracks :          1 (33.3%)
  nodes exc. ref.  :          0 (0.0%)
  delayed cutoffs  :          0
  repropagations   :          0 (0 domain reductions, 0 cutoffs)
  avg switch length:       2.11
  switching time   :       0.02
Estim. Tree Size   :          7
Estimation Tree    : 15 nodes (9 visited, 7 inner, 2 leaves, 6 open), weight: 0.5000 completed 0.2801
Estimations        :      estim      value      trend resolution     smooth
  wbe              :          7          -          -          -          -
  tree-profile     :         -1          -          -          -          -
  gap              :          4    0.66552    0.53815          1          4
  tree-weight      :          7    0.50000    0.23688          1          7
  leaf-frequency   :          4    0.16667    0.52881          1          4
  ssg              :         12    0.84718   -0.18549          1         12
  open-nodes       :         18    6.00000    3.40000          1         13
Root Node          :
  First LP value   : -9.05142858420791e+04
  First LP Iters   :      61162 (672.48 Iter/sec)
  First LP Time    :      90.95
  Final Dual Bound : -8.97155521270994e+04
  Final Root Iters :      61162
  Root LP Estimate : -5.86630882004419e+04
Solution           :
  Solutions found  :          6 (6 improvements)
  First Solution   : +0.00000000000000e+00   (in run 1, after 0 nodes, 0.34 seconds, depth 0, found by <trivial>)
  Gap First Sol.   :   infinite
  Gap Last Sol.    :      50.26 %
  Primal Bound     : -5.88400000000000e+04   (in run 1, after 6 nodes, 6386.11 seconds, depth 600, found by <pscostdiving>)
  Dual Bound       : -8.84117566758065e+04
  Gap              :      50.26 %
Integrals          :      Total       Avg%
  primal-dual      :  320683.79      44.54
  primal-ref       :  169309.20      23.51
  dual-ref         :  204578.26      28.41

SCIP> checksol

check best solution
solution is feasible in original problem
Violation          :    absolute    relative
  bounds           : 0.00000e+00 0.00000e+00
  integrality      : 0.00000e+00           -
  LP rows          : 0.00000e+00 0.00000e+00
  constraints      : 0.00000e+00 0.00000e+00

SCIP> write sol /local/tmp/bzfhende-tmpdir/bzfhende.instancegroups_opm2.150_opm2--z12-s7.scip.M620v2.periodic_report.sol

written solution information to file </local/tmp/bzfhende-tmpdir/bzfhende.instancegroups_opm2.150_opm2-z12-s7.scip.M620v2.periodic_report.sol>

SCIP> quit

Read MPS: 1
MIP has 10800 vars and 319508 constraints
Read SOL: 1
Objective value computed by solver: -58840

Integrality tolerance: 1/10000
Linear tolerance: 1/10000
Objective tolerance: 1/10000

Check SOL: Integrality 1 Constraints 1 Objective 1
Maximum violations: Integrality 0 Constraints 0 Objective 0
@04 1583664146
-----------------------------
So 8. Mär 11:42:26 CET 2020
-----------------------------

=ready=
